# SCIP version 6.0.2

# maximum depth of a node to run components detection (-1: disable component detection during solving)
# [type: int, advanced: FALSE, range: [-1,2147483647], default: -1]
constraints/components/maxdepth = 5

# maximum number of nodes to be solved in subproblems during presolving
# [type: longint, advanced: FALSE, range: [-1,9223372036854775807], default: 10000]
constraints/components/nodelimit = 1
